0000000000000000
0111111111000000
0111111111110000
0111111111111000
0110000111111100
0000000001111100
0000000000111100
0000000000111100
0111100000111100
0111100000111100
0111100000111100
0111100000111100
0111100000111100
0111100000111100
0111100000111100
0111100000111100
